\ Model Network Flow Problem with Time-Dependent Flow
\ LP format - for model browsing. Use MPS format to capture full model detail.
Minimize
  22.15986126256743 flow[0,0] + 22.15986126256743 flow[0,1]
   + 22.15986126256743 flow[0,2] + 22.15986126256743 flow[0,3]
   + 22.15986126256743 flow[0,4] + 70.92268574177119 flow[1,0]
   + 70.92268574177119 flow[1,1] + 70.92268574177119 flow[1,2]
   + 70.92268574177119 flow[1,3] + 70.92268574177119 flow[1,4]
   + 62.5274034536989 flow[2,0] + 62.5274034536989 flow[2,1]
   + 62.5274034536989 flow[2,2] + 62.5274034536989 flow[2,3]
   + 62.5274034536989 flow[2,4] + 3.689236332050173 flow[3,0]
   + 3.689236332050173 flow[3,1] + 3.689236332050173 flow[3,2]
   + 3.689236332050173 flow[3,3] + 3.689236332050173 flow[3,4]
   + 19.61671853413068 flow[4,0] + 19.61671853413068 flow[4,1]
   + 19.61671853413068 flow[4,2] + 19.61671853413068 flow[4,3]
   + 19.61671853413068 flow[4,4] + 56.91453211924106 flow[5,0]
   + 56.91453211924106 flow[5,1] + 56.91453211924106 flow[5,2]
   + 56.91453211924106 flow[5,3] + 56.91453211924106 flow[5,4]
   + 65.98724373447965 flow[6,0] + 65.98724373447965 flow[6,1]
   + 65.98724373447965 flow[6,2] + 65.98724373447965 flow[6,3]
   + 65.98724373447965 flow[6,4] + 12.83335702478799 flow[7,0]
   + 12.83335702478799 flow[7,1] + 12.83335702478799 flow[7,2]
   + 12.83335702478799 flow[7,3] + 12.83335702478799 flow[7,4]
   + 56.99463003560409 flow[8,0] + 56.99463003560409 flow[8,1]
   + 56.99463003560409 flow[8,2] + 56.99463003560409 flow[8,3]
   + 56.99463003560409 flow[8,4] + 27.44005396733609 flow[9,0]
   + 27.44005396733609 flow[9,1] + 27.44005396733609 flow[9,2]
   + 27.44005396733609 flow[9,3] + 27.44005396733609 flow[9,4]
   + 68.07122856070097 flow[10,0] + 68.07122856070097 flow[10,1]
   + 68.07122856070097 flow[10,2] + 68.07122856070097 flow[10,3]
   + 68.07122856070097 flow[10,4] + 64.10021896811759 flow[11,0]
   + 64.10021896811759 flow[11,1] + 64.10021896811759 flow[11,2]
   + 64.10021896811759 flow[11,3] + 64.10021896811759 flow[11,4]
   + 99.51069659489036 flow[12,0] + 99.51069659489036 flow[12,1]
   + 99.51069659489036 flow[12,2] + 99.51069659489036 flow[12,3]
   + 99.51069659489036 flow[12,4] + 46.66400689432409 flow[13,0]
   + 46.66400689432409 flow[13,1] + 46.66400689432409 flow[13,2]
   + 46.66400689432409 flow[13,3] + 46.66400689432409 flow[13,4]
   + 88.38140614215146 flow[14,0] + 88.38140614215146 flow[14,1]
   + 88.38140614215146 flow[14,2] + 88.38140614215146 flow[14,3]
   + 88.38140614215146 flow[14,4] + 42.01200628843682 flow[15,0]
   + 42.01200628843682 flow[15,1] + 42.01200628843682 flow[15,2]
   + 42.01200628843682 flow[15,3] + 42.01200628843682 flow[15,4]
   + 19.46886786913301 flow[16,0] + 19.46886786913301 flow[16,1]
   + 19.46886786913301 flow[16,2] + 19.46886786913301 flow[16,3]
   + 19.46886786913301 flow[16,4] + 99.02656182882967 flow[17,0]
   + 99.02656182882967 flow[17,1] + 99.02656182882967 flow[17,2]
   + 99.02656182882967 flow[17,3] + 99.02656182882967 flow[17,4]
   + 91.70035222266552 flow[18,0] + 91.70035222266552 flow[18,1]
   + 91.70035222266552 flow[18,2] + 91.70035222266552 flow[18,3]
   + 91.70035222266552 flow[18,4] + 6.293784021759095 flow[19,0]
   + 6.293784021759095 flow[19,1] + 6.293784021759095 flow[19,2]
   + 6.293784021759095 flow[19,3] + 6.293784021759095 flow[19,4]
Subject To
 cap_0_0: flow[0,0] <= 445133.0790993119
 cap_0_1: flow[0,1] <= 445133.0790993119
 cap_0_2: flow[0,2] <= 445133.0790993119
 cap_0_3: flow[0,3] <= 445133.0790993119
 cap_0_4: flow[0,4] <= 445133.0790993119
 cap_1_0: flow[1,0] <= 680873.7977629697
 cap_1_1: flow[1,1] <= 680873.7977629697
 cap_1_2: flow[1,2] <= 680873.7977629697
 cap_1_3: flow[1,3] <= 680873.7977629697
 cap_1_4: flow[1,4] <= 680873.7977629697
 cap_2_0: flow[2,0] <= 816464.543222109
 cap_2_1: flow[2,1] <= 816464.543222109
 cap_2_2: flow[2,2] <= 816464.543222109
 cap_2_3: flow[2,3] <= 816464.543222109
 cap_2_4: flow[2,4] <= 816464.543222109
 cap_3_0: flow[3,0] <= 967329.2096826149
 cap_3_1: flow[3,1] <= 967329.2096826149
 cap_3_2: flow[3,2] <= 967329.2096826149
 cap_3_3: flow[3,3] <= 967329.2096826149
 cap_3_4: flow[3,4] <= 967329.2096826149
 cap_4_0: flow[4,0] <= 209877.235026123
 cap_4_1: flow[4,1] <= 209877.235026123
 cap_4_2: flow[4,2] <= 209877.235026123
 cap_4_3: flow[4,3] <= 209877.235026123
 cap_4_4: flow[4,4] <= 209877.235026123
 cap_5_0: flow[5,0] <= 870046.3162740335
 cap_5_1: flow[5,1] <= 870046.3162740335
 cap_5_2: flow[5,2] <= 870046.3162740335
 cap_5_3: flow[5,3] <= 870046.3162740335
 cap_5_4: flow[5,4] <= 870046.3162740335
 cap_6_0: flow[6,0] <= 552233.4021894371
 cap_6_1: flow[6,1] <= 552233.4021894371
 cap_6_2: flow[6,2] <= 552233.4021894371
 cap_6_3: flow[6,3] <= 552233.4021894371
 cap_6_4: flow[6,4] <= 552233.4021894371
 cap_7_0: flow[7,0] <= 66295.26437503411
 cap_7_1: flow[7,1] <= 66295.26437503411
 cap_7_2: flow[7,2] <= 66295.26437503411
 cap_7_3: flow[7,3] <= 66295.26437503411
 cap_7_4: flow[7,4] <= 66295.26437503411
 cap_8_0: flow[8,0] <= 260364.8562254744
 cap_8_1: flow[8,1] <= 260364.8562254744
 cap_8_2: flow[8,2] <= 260364.8562254744
 cap_8_3: flow[8,3] <= 260364.8562254744
 cap_8_4: flow[8,4] <= 260364.8562254744
 cap_9_0: flow[9,0] <= 729169.9674760584
 cap_9_1: flow[9,1] <= 729169.9674760584
 cap_9_2: flow[9,2] <= 729169.9674760584
 cap_9_3: flow[9,3] <= 729169.9674760584
 cap_9_4: flow[9,4] <= 729169.9674760584
 cap_10_0: flow[10,0] <= 614842.0946200798
 cap_10_1: flow[10,1] <= 614842.0946200798
 cap_10_2: flow[10,2] <= 614842.0946200798
 cap_10_3: flow[10,3] <= 614842.0946200798
 cap_10_4: flow[10,4] <= 614842.0946200798
 cap_11_0: flow[11,0] <= 937952.478533144
 cap_11_1: flow[11,1] <= 937952.478533144
 cap_11_2: flow[11,2] <= 937952.478533144
 cap_11_3: flow[11,3] <= 937952.478533144
 cap_11_4: flow[11,4] <= 937952.478533144
 cap_12_0: flow[12,0] <= 433115.6234405726
 cap_12_1: flow[12,1] <= 433115.6234405726
 cap_12_2: flow[12,2] <= 433115.6234405726
 cap_12_3: flow[12,3] <= 433115.6234405726
 cap_12_4: flow[12,4] <= 433115.6234405726
 cap_13_0: flow[13,0] <= 680493.301956184
 cap_13_1: flow[13,1] <= 680493.301956184
 cap_13_2: flow[13,2] <= 680493.301956184
 cap_13_3: flow[13,3] <= 680493.301956184
 cap_13_4: flow[13,4] <= 680493.301956184
 cap_14_0: flow[14,0] <= 759262.692938903
 cap_14_1: flow[14,1] <= 759262.692938903
 cap_14_2: flow[14,2] <= 759262.692938903
 cap_14_3: flow[14,3] <= 759262.692938903
 cap_14_4: flow[14,4] <= 759262.692938903
 cap_15_0: flow[15,0] <= 278655.0976818285
 cap_15_1: flow[15,1] <= 278655.0976818285
 cap_15_2: flow[15,2] <= 278655.0976818285
 cap_15_3: flow[15,3] <= 278655.0976818285
 cap_15_4: flow[15,4] <= 278655.0976818285
 cap_16_0: flow[16,0] <= 6154.124829672402
 cap_16_1: flow[16,1] <= 6154.124829672402
 cap_16_2: flow[16,2] <= 6154.124829672402
 cap_16_3: flow[16,3] <= 6154.124829672402
 cap_16_4: flow[16,4] <= 6154.124829672402
 cap_17_0: flow[17,0] <= 807865.2376707386
 cap_17_1: flow[17,1] <= 807865.2376707386
 cap_17_2: flow[17,2] <= 807865.2376707386
 cap_17_3: flow[17,3] <= 807865.2376707386
 cap_17_4: flow[17,4] <= 807865.2376707386
 cap_18_0: flow[18,0] <= 957817.9070827806
 cap_18_1: flow[18,1] <= 957817.9070827806
 cap_18_2: flow[18,2] <= 957817.9070827806
 cap_18_3: flow[18,3] <= 957817.9070827806
 cap_18_4: flow[18,4] <= 957817.9070827806
 cap_19_0: flow[19,0] <= 329895.4088724781
 cap_19_1: flow[19,1] <= 329895.4088724781
 cap_19_2: flow[19,2] <= 329895.4088724781
 cap_19_3: flow[19,3] <= 329895.4088724781
 cap_19_4: flow[19,4] <= 329895.4088724781
 flow_conservation_0_0: - flow[1,0] - flow[10,0] + flow[11,0] - flow[12,0]
   + flow[15,0] = 250.5894019711925
 flow_conservation_0_1: - flow[1,1] - flow[10,1] + flow[11,1] - flow[12,1]
   + flow[15,1] = -944.2544955020187
 flow_conservation_0_2: - flow[1,2] - flow[10,2] + flow[11,2] - flow[12,2]
   + flow[15,2] = -136.102113007619
 flow_conservation_0_3: - flow[1,3] - flow[10,3] + flow[11,3] - flow[12,3]
   + flow[15,3] = -951.9529403369016
 flow_conservation_0_4: - flow[1,4] - flow[10,4] + flow[11,4] - flow[12,4]
   + flow[15,4] = 594.4418106421397
 flow_conservation_1_0: flow[2,0] + flow[5,0] - flow[8,0] + flow[13,0]
   - flow[17,0] = 870.1216032252094
 flow_conservation_1_1: flow[2,1] + flow[5,1] - flow[8,1] + flow[13,1]
   - flow[17,1] = 681.0151673914413
 flow_conservation_1_2: flow[2,2] + flow[5,2] - flow[8,2] + flow[13,2]
   - flow[17,2] = -505.6928678178692
 flow_conservation_1_3: flow[2,3] + flow[5,3] - flow[8,3] + flow[13,3]
   - flow[17,3] = -52.84694972099066
 flow_conservation_1_4: flow[2,4] + flow[5,4] - flow[8,4] + flow[13,4]
   - flow[17,4] = 917.6053157568269
 flow_conservation_2_0: flow[6,0] + flow[7,0] + flow[8,0] + flow[19,0]
   = 665.0350250964293
 flow_conservation_2_1: flow[6,1] + flow[7,1] + flow[8,1] + flow[19,1]
   = 643.2675917981335
 flow_conservation_2_2: flow[6,2] + flow[7,2] + flow[8,2] + flow[19,2]
   = 39.35008934305779
 flow_conservation_2_3: flow[6,3] + flow[7,3] + flow[8,3] + flow[19,3]
   = -526.5126683779422
 flow_conservation_2_4: flow[6,4] + flow[7,4] + flow[8,4] + flow[19,4]
   = -854.1783276833675
 flow_conservation_3_0: flow[0,0] - flow[2,0] - flow[3,0] - flow[9,0]
   - flow[15,0] - flow[18,0] - flow[19,0] = 199.9294105107567
 flow_conservation_3_1: flow[0,1] - flow[2,1] - flow[3,1] - flow[9,1]
   - flow[15,1] - flow[18,1] - flow[19,1] = -122.9410355672453
 flow_conservation_3_2: flow[0,2] - flow[2,2] - flow[3,2] - flow[9,2]
   - flow[15,2] - flow[18,2] - flow[19,2] = -808.658501128126
 flow_conservation_3_3: flow[0,3] - flow[2,3] - flow[3,3] - flow[9,3]
   - flow[15,3] - flow[18,3] - flow[19,3] = -107.087618426465
 flow_conservation_3_4: flow[0,4] - flow[2,4] - flow[3,4] - flow[9,4]
   - flow[15,4] - flow[18,4] - flow[19,4] = -750.3472553858952
 flow_conservation_4_0: flow[1,0] - flow[13,0] = 949.0511575443586
 flow_conservation_4_1: flow[1,1] - flow[13,1] = 833.4287558994245
 flow_conservation_4_2: flow[1,2] - flow[13,2] = -245.2097339439479
 flow_conservation_4_3: flow[1,3] - flow[13,3] = 780.1674730731866
 flow_conservation_4_4: flow[1,4] - flow[13,4] = 386.7273340378433
 flow_conservation_5_0: - flow[0,0] + flow[12,0] - flow[14,0] + flow[16,0]
   = 565.2924795081585
 flow_conservation_5_1: - flow[0,1] + flow[12,1] - flow[14,1] + flow[16,1]
   = -875.9955328834685
 flow_conservation_5_2: - flow[0,2] + flow[12,2] - flow[14,2] + flow[16,2]
   = 604.7741985606908
 flow_conservation_5_3: - flow[0,3] + flow[12,3] - flow[14,3] + flow[16,3]
   = -890.4223397154947
 flow_conservation_5_4: - flow[0,4] + flow[12,4] - flow[14,4] + flow[16,4]
   = 221.4772794572295
 flow_conservation_6_0: - flow[5,0] + flow[18,0] = -136.3220205040238
 flow_conservation_6_1: - flow[5,1] + flow[18,1] = -796.3448363905482
 flow_conservation_6_2: - flow[5,2] + flow[18,2] = -888.4200817457133
 flow_conservation_6_3: - flow[5,3] + flow[18,3] = -895.5937132996803
 flow_conservation_6_4: - flow[5,4] + flow[18,4] = 699.8586264469545
 flow_conservation_7_0: flow[3,0] - flow[4,0] - flow[6,0] - flow[11,0]
   - flow[16,0] = -196.6338739420437
 flow_conservation_7_1: flow[3,1] - flow[4,1] - flow[6,1] - flow[11,1]
   - flow[16,1] = 234.6039526457093
 flow_conservation_7_2: flow[3,2] - flow[4,2] - flow[6,2] - flow[11,2]
   - flow[16,2] = -177.7839923931364
 flow_conservation_7_3: flow[3,3] - flow[4,3] - flow[6,3] - flow[11,3]
   - flow[16,3] = 729.1654884752013
 flow_conservation_7_4: flow[3,4] - flow[4,4] - flow[6,4] - flow[11,4]
   - flow[16,4] = 574.9496170837288
 flow_conservation_8_0: flow[9,0] + flow[10,0] + flow[14,0]
   = 248.0163128764411
 flow_conservation_8_1: flow[9,1] + flow[10,1] + flow[14,1]
   = -93.17750656723956
 flow_conservation_8_2: flow[9,2] + flow[10,2] + flow[14,2]
   = -71.58181376509856
 flow_conservation_8_3: flow[9,3] + flow[10,3] + flow[14,3]
   = -143.7885183105147
 flow_conservation_8_4: flow[9,4] + flow[10,4] + flow[14,4]
   = 240.4214087013984
 flow_conservation_9_0: flow[4,0] - flow[7,0] + flow[17,0]
   = -797.4441447911194
 flow_conservation_9_1: flow[4,1] - flow[7,1] + flow[17,1]
   = 301.8428524968751
 flow_conservation_9_2: flow[4,2] - flow[7,2] + flow[17,2]
   = 351.5522000630071
 flow_conservation_9_3: flow[4,3] - flow[7,3] + flow[17,3]
   = -948.0558417130001
 flow_conservation_9_4: flow[4,4] - flow[7,4] + flow[17,4]
   = 34.42578506758309
Bounds
End
